c clasp version 2.1.1
c Reading from pb_300_02.cnf
c Solving...
s UNKNOWN

c TIME LIMIT    : 1
c Models        : 0+    
c Time          : 100000.128s (Solving: 99999.39s 1st Model: 0.00s Unsat: 0.00s)
c CPU Time      : 99839.820s
c Choices       : 158499838
c Conflicts     : 109419822
c Restarts      : 31     (Average: 3529671.68 Last: 73632201)

c Variables     : 385845 (Eliminated:   11 Frozen:    0)
c Constraints   : 409801 (Binary: 58.3% Ternary: 39.9% Other:  1.8%)
c Lemmas        : 109419822 (Binary:  0.0% Ternary:  0.0% Other:100.0%)
c   Conflict    : 109419822 (Average Length: 1053.7) 
c   Loop        : 0      (Average Length: 0.0) 
c   Other       : 0      (Average Length: 0.0)
c   Deleted     : 109318772
